&CONTROL
  calculation = 'scf'
  etot_conv_thr =   2.4000000000d-03
  forc_conv_thr =   1.0000000000d-04
  outdir = './out/'
  prefix = 'GBE210_200'
  pseudo_dir = './pseudo/'
  verbosity = 'high'
/
&SYSTEM
  degauss =   2.2049585400d-02
  ecutrho =   3.6000000000d+02
  ecutwfc =   5.0000000000d+01
  ibrav = 0
  nat = 161
  nosym = .false.
  nspin = 2
  ntyp = 2
  occupations = 'smearing'
  smearing = 'cold'
  starting_magnetization(1) =   1.0000000000d-01
  starting_magnetization(2) =   2.7777777778d-01
/
&ELECTRONS
  conv_thr =   3.2200000000d-08
  electron_maxstep = 80
  mixing_beta =   4.0000000000d-01
/
ATOMIC_SPECIES
Ag     107.8682 Ag_ONCV_PBEsol-1.0.upf
Ni     58.6934 ni_pbesol_v1.4.uspp.F.UPF
ATOMIC_POSITIONS crystal
Ag           0.9154216885       0.8804876964       0.4197625170 
Ag           0.8009882825       0.9563173531       0.4085709237 
Ag           0.7123716441       0.8998960324       0.3073918309 
Ag           0.6008936116       0.9763436987       0.2966065097 
Ag           0.5244738684       0.9225636767       0.4244871633 
Ag           0.4205806331       0.9982396006       0.4206559916 
Ag           0.1418277808       0.9627034545       0.4317164665 
Ag           0.3308805572       0.9421326507       0.3109337087 
Ag           0.2342029803       0.8918167645       0.4282605175 
Ag           0.0340410244       0.9204236963       0.3136069814 
Ag           0.9139588311       0.7502825219       0.3114569645 
Ag           0.4260881678       0.8696691830       0.3104412990 
Ag           0.8177449284       0.8255894581       0.3096789944 
Ag           0.6263858054       0.8484103735       0.4248174933 
Ag           0.7201773182       0.7732330090       0.4252151163 
Ag           0.5252009137       0.7976313215       0.3103531032 
Ag           0.3306842270       0.8210600573       0.4264767614 
Ag           0.1275815542       0.8464524208       0.3116200214 
Ag           0.2246054704       0.7734259941       0.3102442751 
Ag           0.0317635751       0.7973195457       0.4259707259 
Ag           0.4177937273       0.7494599109       0.4250572655 
Ag           0.8171943347       0.6971970032       0.4265926781 
Ag           0.7235339648       0.6515535501       0.3113099740 
Ag           0.6174264257       0.7239796300       0.3114323948 
Ag           0.5064975326       0.6782061610       0.4276940309 
Ag           0.4268818537       0.6298181095       0.3107682100 
Ag           0.3136692148       0.7002279581       0.3092004429 
Ag           0.2104955651       0.6467026396       0.4218415343 
Ag           0.1216152210       0.7216982268       0.4236626088 
Ag           0.0235675359       0.6689450697       0.3048946319 
Ag           0.9409236732       0.6216254524       0.4199397551 
Ag           0.6407669918       0.6115531160       0.4330495124 
Ag           0.6576487452       0.5370732047       0.4259002140 
Ag           0.8107334148       0.5764297385       0.3100192378 
Ag           0.3730936217       0.5764225741       0.4263791108 
Ag           0.1625422409       0.5940578481       0.3050800150 
Ag           0.1162993428       0.5369530937       0.4382474980 
Ag           0.9424565867       0.4520725174       0.4198223166 
Ag           0.8112454417       0.4974141755       0.3099908184 
Ag           0.6420309230       0.4625576196       0.4326742362 
Ag           0.5101330051       0.3956018985       0.4275628521 
Ag           0.7260391568       0.4221973824       0.3113302794 
Ag           0.4292248415       0.4441406704       0.3108950274 
Ag           0.8208384004       0.3764543985       0.4264966986 
Ag           0.3739175130       0.4977035066       0.4264013933 
Ag           0.1642484989       0.4797750680       0.3052702057 
Ag           0.2135733681       0.4271344086       0.4220367901 
Ag           0.0266971365       0.4051530693       0.3049246962 
Ag           0.9179928003       0.3234115724       0.3115277005 
Ag           0.6212110243       0.3497074334       0.3114709473 
Ag           0.4214816300       0.3243469139       0.4250758835 
Ag           0.7241041016       0.3004496128       0.4253227488 
Ag           0.5293724995       0.2761025959       0.3104905410 
Ag           0.3171723979       0.3736443874       0.3092752187 
Ag           0.1250416233       0.3521944432       0.4236490596 
Ag           0.2285678369       0.3004453089       0.3102467764 
Ag           0.0356823797       0.2765815132       0.4258320769 
Ag           0.3347333885       0.2527133272       0.4264195126 
Ag           0.9200528430       0.1931088377       0.4198490538 
Ag           0.8222014420       0.2481386781       0.3099192288 
Ag           0.6305987239       0.2252168902       0.4248902187 
Ag           0.4305161214       0.2040249079       0.3105075065 
Ag           0.7171694291       0.1738060905       0.3075864726 
Ag           0.5289727843       0.1509359833       0.4240886983 
Ag           0.1318809602       0.2273575123       0.3115934661 
Ag           0.2386150595       0.1819127388       0.4281540374 
Ag           0.0374480634       0.1534042098       0.3134760552 
Ag           0.3340182810       0.1315657845       0.3108362971 
Ag           0.8994960016       0.0003943403       0.2839874834 
Ag           0.9021234997       0.0730189644       0.2837019428 
Ag           0.8058457444       0.1170518545       0.4080745953 
Ag           0.4215028353       0.0755601663       0.4206016818 
Ag           0.6037430516       0.0972318995       0.2964052932 
Ag           0.7035708256       0.0367973825       0.3851825969 
Ag           0.1433967590       0.1112613018       0.4317825518 
Ag           0.1348125601       0.0369954395       0.4259364500 
Ag           0.9141385811       0.8752428664       0.1913370850 
Ag           0.8966583722       0.9992693272       0.0897463765 
Ag           0.5108740107       0.9211427084       0.1904435096 
Ag           0.8039875638       0.9468163245       0.1901586209 
Ag           0.3994452595       0.9991314523       0.1837714704 
Ag           0.7154836053       0.8985326625       0.0731619247 
Ag           0.6068361967       0.9704205879       0.0809212818 
Ag           0.2250238544       0.8931228298       0.1916137885 
Ag           0.1325667242       0.9633082363       0.1932566031 
Ag           0.3172392831       0.9475117193       0.0715475364 
Ag           0.0210681392       0.9220804257       0.0727647089 
Ag           0.9143287773       0.7508280710       0.0769137705 
Ag           0.6203600541       0.8483435001       0.1919174854 
Ag           0.7188962963       0.7740634361       0.1938057696 
Ag           0.4207623596       0.8725348838       0.0738432645 
Ag           0.8165791405       0.8247263510       0.0757697353 
Ag           0.5213889254       0.7984938325       0.0756155926 
Ag           0.0286467590       0.7975884608       0.1938229147 
Ag           0.3252944163       0.8219754682       0.1924509623 
Ag           0.1233299445       0.8475007443       0.0745598319 
Ag           0.2227663781       0.7733898486       0.0758671219 
Ag           0.9297668726       0.6265723389       0.1994266872 
Ag           0.4204469642       0.7496391744       0.1930102707 
Ag           0.5156109165       0.6781161743       0.1916446677 
Ag           0.8177493726       0.6997380532       0.1942251233 
Ag           0.7272363684       0.6508359033       0.0726891617 
Ag           0.6199363340       0.7244201097       0.0755222772 
Ag           0.4233596893       0.6253165841       0.0757363786 
Ag           0.1247526361       0.7226976628       0.1928624631 
Ag           0.2220637322       0.6470391053       0.1913402388 
Ag           0.3195590023       0.6990593025       0.0760402008 
Ag           0.0248540712       0.6714394364       0.0797246645 
Ag           0.6302982634       0.6098337161       0.1915725091 
Ag           0.6594195943       0.5369850323       0.1978871010 
Ag           0.8337504832       0.5766475563       0.0935651278 
Ag           0.5243601765       0.5366721188       0.0589673916 
Ag           0.3649236533       0.5745146859       0.1881631234 
Ag           0.0989985899       0.5368931439       0.1789413283 
Ag           0.1153726495       0.5960200878       0.0802839401 
Ag           0.9317331616       0.4472400984       0.1992975679 
Ag           0.6320467395       0.4641011511       0.1916915126 
Ag           0.5192668878       0.3956926167       0.1917470633 
Ag           0.8351499901       0.4971957388       0.0935367581 
Ag           0.7307293969       0.4230087868       0.0728443889 
Ag           0.4265300922       0.4486170829       0.0756368810 
Ag           0.3661436011       0.4994130784       0.1883138000 
Ag           0.2255589917       0.4267956379       0.1913730979 
Ag           0.1195604685       0.4778787825       0.0804495701 
Ag           0.0288309296       0.4026426727       0.0794945480 
Ag           0.9186492632       0.3228643961       0.0767400079 
Ag           0.8215931360       0.3739568546       0.1942273414 
Ag           0.7233273302       0.2996968234       0.1939272339 
Ag           0.4246032857       0.3241900196       0.1931206949 
Ag           0.6243462403       0.3493900527       0.0755479998 
Ag           0.5264802110       0.2753709193       0.0758250007 
Ag           0.0331309414       0.2763800146       0.1937850313 
Ag           0.3298436608       0.2518432030       0.1926523287 
Ag           0.1287361503       0.3512810429       0.1928293487 
Ag           0.3238162921       0.3748190658       0.0759930850 
Ag           0.2276874146       0.3005128430       0.0759558565 
Ag           0.9192765796       0.1985266334       0.1917449883 
Ag           0.6252802853       0.2254605376       0.1922513874 
Ag           0.8085756154       0.1270843162       0.1905738009 
Ag           0.5152667557       0.1526622215       0.1908086150 
Ag           0.8216823563       0.2490492718       0.0758980192 
Ag           0.4259780276       0.2014317064       0.0743349837 
Ag           0.7208141601       0.1753523771       0.0737879961 
Ag           0.2293062375       0.1806536564       0.1916699112 
Ag           0.1283353763       0.2264051341       0.0747162968 
Ag           0.0250323815       0.1518164922       0.0727564312 
Ag           0.3214454289       0.1265177039       0.0719191151 
Ag           0.8992966722       0.0740808815       0.0911116413 
Ag           0.6830971750       0.0366393875       0.1913689552 
Ag           0.4012782678       0.0746381591       0.1835716907 
Ag           0.6110654250       0.1033446267       0.0815540113 
Ag           0.6514547231       0.0368296931       0.0249289311 
Ag           0.1349437875       0.1105531754       0.1930549703 
Ag           0.1125854994       0.0369515139       0.1963860986 
Ag           0.2533543249       0.0369717181       0.0554439197 
Ni           0.5373152069       0.5681507306       0.3124297451 
Ni           0.5377283098       0.5060138995       0.3123805863 
Ni           0.3108659467       0.5370475100       0.3107504752 
Ni           0.4626039915       0.0369372732       0.3027577022 
Ni           0.2411716380       0.0057921988       0.3103640995 
Ni           0.2415868001       0.0681486501       0.3103606767 
K_POINTS automatic
3 3 1 0 0 0
CELL_PARAMETERS angstrom
      9.3032499096       0.0000000000       0.0000000000
      0.0000000000      37.2892583937       0.0000000000
      0.0000000000       0.0000000000      18.0000000000