&CONTROL
  calculation = 'scf'
  etot_conv_thr =   2.4000000000d-03
  forc_conv_thr =   1.0000000000d-04
  outdir = './out/'
  prefix = 'GBE210_200_4k'
  pseudo_dir = './pseudo/'
  verbosity = 'high'
/
&SYSTEM
  degauss =   2.2049585400d-02
  ecutrho =   3.6000000000d+02
  ecutwfc =   5.0000000000d+01
  ibrav = 0
  nat = 200
  nosym = .false.
  nspin = 2
  ntyp = 2
  occupations = 'smearing'
  smearing = 'cold'
  starting_magnetization(1) =   1.0000000000d-01
  starting_magnetization(2) =   2.7777777778d-01
/
&ELECTRONS
  conv_thr =   4.8000000000d-08
  electron_maxstep = 80
  mixing_beta =   4.0000000000d-01
/
ATOMIC_SPECIES
Ag     107.8682 Ag_ONCV_PBEsol-1.0.upf
Ni     58.6934 ni_pbesol_v1.4.uspp.F.UPF
ATOMIC_POSITIONS crystal
Ag           0.9154216885       0.8804876964       0.4503013319 
Ag           0.8009882825       0.9563173531       0.4396987698 
Ag           0.7123716441       0.8998960324       0.3438448925 
Ag           0.6008936116       0.9763436987       0.3336272197 
Ag           0.5244738684       0.9225636767       0.4547773126 
Ag           0.4205806331       0.9982396006       0.4511477816 
Ag           0.1418277808       0.9627034545       0.4616261261 
Ag           0.3308805572       0.9421326507       0.3472003556 
Ag           0.2342029803       0.8918167645       0.4583520692 
Ag           0.0340410244       0.9204236963       0.3497329297 
Ag           0.9139588311       0.7502825219       0.3476960716 
Ag           0.4260881678       0.8696691830       0.3467338622 
Ag           0.8177449284       0.8255894581       0.3460116789 
Ag           0.6263858054       0.8484103735       0.4550902569 
Ag           0.7201773182       0.7732330090       0.4554669523 
Ag           0.5252009137       0.7976313215       0.3466503083 
Ag           0.3306842270       0.8210600573       0.4566621950 
Ag           0.1275815542       0.8464524208       0.3478505466 
Ag           0.2246054704       0.7734259941       0.3465472079 
Ag           0.0317635751       0.7973195457       0.4561827930 
Ag           0.4177937273       0.7494599109       0.4553174095 
Ag           0.8171943347       0.6971970032       0.4567720108 
Ag           0.7235339648       0.6515535501       0.3475568175 
Ag           0.6174264257       0.7239796300       0.3476727951 
Ag           0.5064975326       0.6782061610       0.4578153977 
Ag           0.4268818537       0.6298181095       0.3470435674 
Ag           0.3136692148       0.7002279581       0.3455583144 
Ag           0.2104955651       0.6467026396       0.4522709272 
Ag           0.1216152210       0.7216982268       0.4539961557 
Ag           0.0235675359       0.6689450697       0.3414791250 
Ag           0.9409236732       0.6216254524       0.4504692416 
Ag           0.6407669918       0.6115531160       0.4628890118 
Ag           0.6576487452       0.5370732047       0.4561159922 
Ag           0.8107334148       0.5764297385       0.3463340147 
Ag           0.3730936217       0.5764225741       0.4565696839 
Ag           0.1625422409       0.5940578481       0.3416547511 
Ag           0.1162993428       0.5369530937       0.4678134192 
Ag           0.9424565867       0.4520725174       0.4503579842 
Ag           0.8112454417       0.4974141755       0.3463070911 
Ag           0.6420309230       0.4625576196       0.4625334869 
Ag           0.5101330051       0.3956018985       0.4576911231 
Ag           0.7260391568       0.4221973824       0.3475760542 
Ag           0.4292248415       0.4441406704       0.3471637102 
Ag           0.8208384004       0.3764543985       0.4566810829 
Ag           0.3739175130       0.4977035066       0.4565907936 
Ag           0.1642484989       0.4797750680       0.3418349317 
Ag           0.2135733681       0.4271344086       0.4524559064 
Ag           0.0266971365       0.4051530693       0.3415076069 
Ag           0.9179928003       0.3234115724       0.3477630847 
Ag           0.6212110243       0.3497074334       0.3477093185 
Ag           0.4214816300       0.3243469139       0.4553350475 
Ag           0.7241041016       0.3004496128       0.4555689200 
Ag           0.5293724995       0.2761025959       0.3467805125 
Ag           0.3171723979       0.3736443874       0.3456291546 
Ag           0.1250416233       0.3521944432       0.4539833196 
Ag           0.2285678369       0.3004453089       0.3465495777 
Ag           0.0356823797       0.2765815132       0.4560514413 
Ag           0.3347333885       0.2527133272       0.4566079593 
Ag           0.9200528430       0.1931088377       0.4503833142 
Ag           0.8222014420       0.2481386781       0.3462392694 
Ag           0.6305987239       0.2252168902       0.4551591545 
Ag           0.4305161214       0.2040249079       0.3467965851 
Ag           0.7171694291       0.1738060905       0.3440292898 
Ag           0.5289727843       0.1509359833       0.4543998194 
Ag           0.1318809602       0.2273575123       0.3478253890 
Ag           0.2386150595       0.1819127388       0.4582511933 
Ag           0.0374480634       0.1534042098       0.3496088944 
Ag           0.3340182810       0.1315657845       0.3471080709 
Ag           0.8994960016       0.0003943403       0.3216723527 
Ag           0.9021234997       0.0730189644       0.3214018405 
Ag           0.8058457444       0.1170518545       0.4392285640 
Ag           0.4215028353       0.0755601663       0.4510963301 
Ag           0.6037430516       0.0972318995       0.3334365936 
Ag           0.7035708256       0.0367973825       0.4175414075 
Ag           0.1433967590       0.1112613018       0.4616887333 
Ag           0.1348125601       0.0369954395       0.4561503210 
Ag           0.9141385811       0.8752428664       0.2338982910 
Ag           0.8966583722       0.9992693272       0.1376544619 
Ag           0.9122376042       0.8760786760       0.0143381418 
Ag           0.5108740107       0.9211427084       0.2330517459 
Ag           0.8039875638       0.9468163245       0.2327818514 
Ag           0.3994452595       0.9991314523       0.2267308667 
Ag           0.8067836432       0.9567275564       0.0142328103 
Ag           0.5208023287       0.9226661884       0.0129619677 
Ag           0.7154836053       0.8985326625       0.1219428761 
Ag           0.6068361967       0.9704205879       0.1292938459 
Ag           0.2250238544       0.8931228298       0.2341604312 
Ag           0.1325667242       0.9633082363       0.2357167819 
Ag           0.2231140376       0.8971763689       0.0130746207 
Ag           0.3172392831       0.9475117193       0.1204134555 
Ag           0.0210681392       0.9220804257       0.1215665663 
Ag           0.1367742690       0.9727585130       0.0126808460 
Ag           0.9143287773       0.7508280710       0.1254972563 
Ag           0.6203600541       0.8483435001       0.2344481440 
Ag           0.7188962963       0.7740634361       0.2362370449 
Ag           0.4207623596       0.8725348838       0.1225883558 
Ag           0.7183528421       0.7742368090       0.0143018903 
Ag           0.8165791405       0.8247263510       0.1244134334 
Ag           0.5213889254       0.7984938325       0.1242674035 
Ag           0.6189309060       0.8481595297       0.0132513627 
Ag           0.0286467590       0.7975884608       0.2362532877 
Ag           0.3252944163       0.8219754682       0.2349535433 
Ag           0.3226733928       0.8229928395       0.0133759302 
Ag           0.0252459586       0.7982280366       0.0141223458 
Ag           0.1233299445       0.8475007443       0.1232672092 
Ag           0.2227663781       0.7733898486       0.1245056945 
Ag           0.9297668726       0.6265723389       0.2415621248 
Ag           0.4204469642       0.7496391744       0.2354834144 
Ag           0.5156109165       0.6781161743       0.2341896851 
Ag           0.8177493726       0.6997380532       0.2366343273 
Ag           0.4206100551       0.7487098090       0.0147423637 
Ag           0.7272363684       0.6508359033       0.1214949953 
Ag           0.6199363340       0.7244201097       0.1241789995 
Ag           0.4233596893       0.6253165841       0.1243818324 
Ag           0.8187587488       0.6996527891       0.0146610606 
Ag           0.5183114936       0.6738307127       0.0151721145 
Ag           0.1247526361       0.7226976628       0.2353433861 
Ag           0.2220637322       0.6470391053       0.2339012789 
Ag           0.1220790981       0.7231590611       0.0160640710 
Ag           0.3195590023       0.6990593025       0.1246696639 
Ag           0.0248540712       0.6714394364       0.1281602085 
Ag           0.2210100321       0.6483667657       0.0167021583 
Ag           0.9210584817       0.6193819265       0.0151378607 
Ag           0.6302982634       0.6098337161       0.2341213244 
Ag           0.6594195943       0.5369850323       0.2401035694 
Ag           0.8337504832       0.5766475563       0.1412722263 
Ag           0.6174720901       0.5986915232       0.0196490436 
Ag           0.5243601765       0.5366721188       0.1084954236 
Ag           0.7917179285       0.5369018767       0.0223849793 
Ag           0.3649236533       0.5745146859       0.2308913801 
Ag           0.0989985899       0.5368931439       0.2221549426 
Ag           0.0192350893       0.5370482417       0.0101849254 
Ag           0.1153726495       0.5960200878       0.1286900485 
Ag           0.3130720396       0.5749999499       0.0237632140 
Ag           0.9317331616       0.4472400984       0.2414398012 
Ag           0.9242696979       0.4544440546       0.0146650761 
Ag           0.6320467395       0.4641011511       0.2342340645 
Ag           0.5192668878       0.3956926167       0.2342866915 
Ag           0.8351499901       0.4971957388       0.1412453498 
Ag           0.7307293969       0.4230087868       0.1216420527 
Ag           0.4265300922       0.4486170829       0.1242875715 
Ag           0.6203261268       0.4748631539       0.0193082561 
Ag           0.5225937019       0.3998691161       0.0150419079 
Ag           0.3661436011       0.4994130784       0.2310341263 
Ag           0.2255589917       0.4267956379       0.2339324086 
Ag           0.3150798653       0.4985926354       0.0228188786 
Ag           0.1195604685       0.4778787825       0.1288469612 
Ag           0.0288309296       0.4026426727       0.1279422034 
Ag           0.2250694368       0.4253739783       0.0163021610 
Ag           0.9186492632       0.3228643961       0.1253326390 
Ag           0.8215931360       0.3739568546       0.2366364287 
Ag           0.7233273302       0.2996968234       0.2363521163 
Ag           0.4246032857       0.3241900196       0.2355880267 
Ag           0.8230240375       0.3741251115       0.0144176620 
Ag           0.6243462403       0.3493900527       0.1242033682 
Ag           0.5264802110       0.2753709193       0.1244657901 
Ag           0.4257827711       0.3250448856       0.0146802962 
Ag           0.7234682401       0.2995442551       0.0141379117 
Ag           0.0331309414       0.2763800146       0.2362173981 
Ag           0.3298436608       0.2518432030       0.2351443114 
Ag           0.1287361503       0.3512810429       0.2353120146 
Ag           0.3238162921       0.3748190658       0.1246250279 
Ag           0.2276874146       0.3005128430       0.1245897588 
Ag           0.1271493379       0.3507597729       0.0159335007 
Ag           0.3284761504       0.2508241201       0.0135652225 
Ag           0.0309507693       0.2757785748       0.0142631217 
Ag           0.9192765796       0.1985266334       0.2342847257 
Ag           0.9175704881       0.1976092167       0.0143598253 
Ag           0.6252802853       0.2254605376       0.2347644723 
Ag           0.8085756154       0.1270843162       0.2331751798 
Ag           0.5152667557       0.1526622215       0.2333976353 
Ag           0.8216823563       0.2490492718       0.1245349656 
Ag           0.4259780276       0.2014317064       0.1230541950 
Ag           0.7208141601       0.1753523771       0.1225359963 
Ag           0.6247356393       0.2257420805       0.0134753087 
Ag           0.5267457313       0.1514209547       0.0140287675 
Ag           0.2293062375       0.1806536564       0.2342136001 
Ag           0.1283353763       0.2264051341       0.1234154391 
Ag           0.0250323815       0.1518164922       0.1215587243 
Ag           0.2287299554       0.1766821832       0.0135800542 
Ag           0.3214454289       0.1265177039       0.1207654775 
Ag           0.8992966722       0.0740808815       0.1389478707 
Ag           0.9214568265       0.0372572183       0.0120479053 
Ag           0.6830971750       0.0366393875       0.2339284839 
Ag           0.4012782678       0.0746381591       0.2265416017 
Ag           0.6110654250       0.1033446267       0.1298932739 
Ag           0.6514547231       0.0368296931       0.0762484610 
Ag           0.8135893250       0.1174888084       0.0157648378 
Ag           0.1349437875       0.1105531754       0.2355257613 
Ag           0.1125854994       0.0369515139       0.2386815671 
Ag           0.2533543249       0.0369717181       0.1051573976 
Ag           0.1403494178       0.1009185850       0.0133326780 
Ag           0.4317858169       0.9969314695       0.0069001017 
Ag           0.4344865989       0.0770991486       0.0075259470 
Ni           0.5373152069       0.5681507306       0.3486176533 
Ni           0.5377283098       0.5060138995       0.3485710818 
Ni           0.3108659467       0.5370475100       0.3470267660 
Ni           0.4626039915       0.0369372732       0.3394546652 
Ni           0.2411716380       0.0057921988       0.3466607259 
Ni           0.2415868001       0.0681486501       0.3466574832
K_POINTS automatic
4 4 1 0 0 0
CELL_PARAMETERS angstrom
      9.3032499096       0.0000000000       0.0000000000
      0.0000000000      37.2892583937       0.0000000000
      0.0000000000       0.0000000000      19.0000000000
